BAYES
100
2 2 2 2 2 2 2 2 2 2 2 2 2 2 2 2 2 2 2 2 2 2 2 2 2 2 2 2 2 2 2 2 2 2 2 2 2 2 2 2 2 2 2 2 2 2 2 2 2 2 2 2 2 2 2 2 2 2 2 2 2 2 2 2 2 2 2 2 2 2 2 2 2 2 2 2 2 2 2 2 2 2 2 2 2 2 2 2 2 2 2 2 2 2 2 2 2 2 2 2
100
3 1 10 0
3 2 11 1
3 3 12 2
3 4 13 3
3 5 14 4
3 6 15 5
3 7 16 6
3 8 17 7
3 9 18 8
2 10 9
3 11 20 10
3 12 21 11
3 13 22 12
3 14 23 13
3 15 24 14
3 16 25 15
3 17 26 16
3 18 27 17
3 19 28 18
2 20 19
3 21 30 20
3 22 31 21
3 23 32 22
3 24 33 23
3 25 34 24
3 26 35 25
3 27 36 26
3 28 37 27
3 29 38 28
2 30 29
3 31 40 30
3 32 41 31
3 33 42 32
3 34 43 33
3 35 44 34
3 36 45 35
3 37 46 36
3 38 47 37
3 39 48 38
2 40 39
3 41 50 40
3 42 51 41
3 43 52 42
3 44 53 43
3 45 54 44
3 46 55 45
3 47 56 46
3 48 57 47
3 49 58 48
2 50 49
3 51 60 50
3 52 61 51
3 53 62 52
3 54 63 53
3 55 64 54
3 56 65 55
3 57 66 56
3 58 67 57
3 59 68 58
2 60 59
3 61 70 60
3 62 71 61
3 63 72 62
3 64 73 63
3 65 74 64
3 66 75 65
3 67 76 66
3 68 77 67
3 69 78 68
2 70 69
3 71 80 70
3 72 81 71
3 73 82 72
3 74 83 73
3 75 84 74
3 76 85 75
3 77 86 76
3 78 87 77
3 79 88 78
2 80 79
3 81 90 80
3 82 91 81
3 83 92 82
3 84 93 83
3 85 94 84
3 86 95 85
3 87 96 86
3 88 97 87
3 89 98 88
2 90 89
2 100 90
2 101 91
2 102 92
2 103 93
2 104 94
2 105 95
2 106 96
2 107 97
2 108 98
1  99
8
0 1 0 1 1 0 1 0
8
0 1 1 0 1 0 1 0
8
0 1 0 1 0 1 0 1
8
1 0 1 0 0 1 1 0
8
0 1 0 1 0 1 0 1
8
1 0 1 0 1 0 0 1
8
1 0 0 1 0 1 1 0
8
1 0 1 0 1 0 0 1
8
0 1 1 0 1 0 1 0
4
1 0 1 0
8
0 1 0 1 0 1 0 1
8
0 1 0 1 0 1 1 0
8
1 0 1 0 0 1 0 1
8
0.6752960879960941 0.32470391200390597 0.3764687359861665 0.6235312640138335 0.2802204085337109 0.7197795914662891 0.9931787721679163 0.0068212278320836815
8
0.7931074642602768 0.20689253573972316 0.4998776004935216 0.5001223995064784 0.12175500550765475 0.8782449944923453 0.7500482782062886 0.24995172179371142
8
1 0 1 0 0 1 0 1
8
1 0 0 1 0 1 0 1
8
1 0 0 1 0 1 0 1
8
0.39511550787540817 0.6048844921245918 0.22316930420108794 0.7768306957989121 0.2454038993372983 0.7545961006627017 0.47326562196166233 0.5267343780383377
4
1 0 0 1
8
0 1 0 1 1 0 0 1
8
0 1 0 1 0 1 1 0
8
0 1 1 0 1 0 0 1
8
1 0 1 0 1 0 1 0
8
1 0 0 1 1 0 0 1
8
1 0 1 0 1 0 1 0
8
1 0 1 0 1 0 0 1
8
1 0 0 1 0 1 1 0
8
0.6186285484058213 0.3813714515941788 0.8749243673633186 0.12507563263668137 0.6385848377393349 0.361415162260665 0.4860592685441665 0.5139407314558335
4
1 0 1 0
8
0 1 1 0 0 1 0 1
8
0 1 1 0 0 1 0 1
8
0 1 1 0 1 0 0 1
8
1 0 0 1 1 0 1 0
8
0.0112505720680949 0.9887494279319051 0.3937768360213607 0.6062231639786393 0.671132239456755 0.32886776054324496 0.1483242157449925 0.8516757842550076
8
1 0 0 1 1 0 0 1
8
0 1 1 0 0 1 0 1
8
1 0 1 0 1 0 1 0
8
1 0 1 0 1 0 1 0
4
1 0 0 1
8
1 0 0 1 1 0 1 0
8
1 0 0 1 1 0 1 0
8
0.6062480602960033 0.39375193970399675 0.6283343655024612 0.37166563449753875 0.034355068950519034 0.965644931049481 0.7222374250317255 0.2777625749682746
8
1 0 0 1 0 1 1 0
8
0 1 0 1 1 0 1 0
8
1 0 1 0 0 1 1 0
8
1 0 0 1 0 1 1 0
8
0 1 0 1 1 0 1 0
8
0 1 0 1 0 1 0 1
4
1 0 0 1
8
1 0 1 0 1 0 0 1
8
1 0 0 1 1 0 0 1
8
1 0 1 0 0 1 0 1
8
1 0 1 0 1 0 0 1
8
1 0 1 0 0 1 0 1
8
0 1 1 0 0 1 0 1
8
1 0 0 1 0 1 0 1
8
1 0 0 1 0 1 1 0
8
0.19193060860304084 0.8080693913969592 0.39213357349289646 0.6078664265071035 0.5453763707348745 0.4546236292651254 0.6105164922836664 0.38948350771633355
4
1 0 1 0
8
0.12335878714111208 0.876641212858888 0.7362120646876126 0.2637879353123874 0.5056289879439098 0.49437101205609024 0.023385186655617025 0.9766148133443829
8
0 1 1 0 1 0 1 0
8
0 1 1 0 1 0 0 1
8
1 0 1 0 1 0 0 1
8
0 1 1 0 1 0 1 0
8
0 1 1 0 1 0 1 0
8
1 0 1 0 1 0 1 0
8
1 0 0 1 0 1 1 0
8
1 0 1 0 1 0 1 0
4
0 1 0 1
8
1 0 1 0 1 0 0 1
8
1 0 1 0 0 1 1 0
8
1 0 0 1 0 1 0 1
8
1 0 1 0 1 0 1 0
8
1 0 1 0 1 0 0 1
8
1 0 1 0 1 0 1 0
8
1 0 0 1 0 1 0 1
8
0.9781579438996446 0.021842056100355303 0.5513406006210227 0.4486593993789773 0.24389027246424919 0.7561097275357508 0.7195759389954375 0.2804240610045626
8
1 0 1 0 0 1 1 0
4
0.017300035298093444 0.9826999647019066 0.5056936060658205 0.49430639393417947
8
1 0 0 1 0 1 0 1
8
0 1 1 0 0 1 0 1
8
0 1 1 0 1 0 0 1
8
0 1 0 1 0 1 1 0
8
0 1 1 0 0 1 1 0
8
1 0 0 1 1 0 0 1
8
1 0 0 1 1 0 0 1
8
1 0 0 1 0 1 0 1
8
1 0 1 0 0 1 1 0
4
0 1 1 0
4
0 1 1 0
4
0 1 0 1
4
0 1 0 1
4
1 0 0 1
4
0 1 0 1
4
0 1 1 0
4
0 1 1 0
4
1 0 1 0
4
1 0 0 1
2
0 1
